param n := 120;
param c := 1000;
param : V : p w :=
   0	  44	 394
   1	  47	 280
   2	  56	 326
   3	  97	 370
   4	  54	 284
   5	  88	 346
   6	 100	 427
   7	  11	 259
   8	  62	 314
   9	  58	 430
  10	  13	 270
  11	  83	 300
  12	  14	 462
  13	  17	 261
  14	  20	 277
  15	  79	 356
  16	   5	 292
  17	   5	 352
  18	   3	 498
  19	  59	 250
  20	  91	 252
  21	   7	 432
  22	  18	 276
  23	  93	 292
  24	  71	 391
  25	  85	 252
  26	  57	 357
  27	  94	 397
  28	  56	 274
  29	  60	 329
  30	  70	 490
  31	  79	 251
  32	  23	 259
  33	  56	 408
  34	  67	 256
  35	  24	 336
  36	  11	 434
  37	  77	 262
  38	  63	 304
  39	  70	 482
  40	  96	 256
  41	  70	 262
  42	  41	 387
  43	  82	 275
  44	  90	 338
  45	  69	 362
  46	  44	 293
  47	  48	 345
  48	  91	 428
  49	  93	 284
  50	  72	 288
  51	  24	 408
  52	  27	 288
  53	   3	 304
  54	  42	 480
  55	  33	 250
  56	  98	 270
  57	  70	 394
  58	  44	 276
  59	   3	 330
  60	  63	 361
  61	  74	 253
  62	   3	 386
  63	  10	 375
  64	  67	 281
  65	  77	 344
  66	  38	 478
  67	  67	 251
  68	  52	 271
  69	  65	 478
  70	  15	 250
  71	  70	 272
  72	  35	 356
  73	  75	 276
  74	   5	 368
  75	   8	 387
  76	  30	 269
  77	  68	 344
  78	  75	 486
  79	  28	 252
  80	  80	 262
  81	  38	 414
  82	  89	 263
  83	  10	 323
  84	  92	 410
  85	  18	 250
  86	  45	 340
  87	   8	 400
  88	  33	 295
  89	  31	 305
  90	  15	 382
  91	  87	 282
  92	  91	 336
  93	  54	 434
  94	  28	 269
  95	  81	 297
  96	   5	 395
  97	   7	 278
  98	  73	 327
  99	  20	 353
 100	  59	 281
 101	  46	 366
 102	  68	 419
 103	  11	 285
 104	  25	 296
 105	  12	 362
 106	  93	 314
 107	  52	 324
 108	  47	 495
 109	  54	 251
 110	  25	 254
 111	  53	 499
 112	  29	 250
 113	  83	 251
 114	  12	 364
 115	  95	 289
 116	  25	 347
 117	  23	 498
 118	  91	 250
 119	  99	 252
;

set E :=
   0	   2
   0	   4
   0	   7
   0	  13
   0	  18
   0	  28
   0	  29
   0	  34
   0	  37
   0	  44
   0	  45
   0	  48
   0	  51
   0	  54
   0	  60
   0	  64
   0	  68
   0	  69
   0	  70
   0	  87
   0	  89
   0	  90
   0	  93
   0	  94
   0	  99
   0	 101
   0	 103
   0	 107
   0	 111
   0	 113
   0	 116
   0	 117
   1	   4
   1	   5
   1	   6
   1	   8
   1	   9
   1	  12
   1	  17
   1	  19
   1	  22
   1	  23
   1	  24
   1	  26
   1	  30
   1	  34
   1	  36
   1	  44
   1	  46
   1	  52
   1	  54
   1	  57
   1	  58
   1	  59
   1	  60
   1	  72
   1	  77
   1	  95
   1	  97
   1	  98
   1	 101
   1	 103
   1	 105
   1	 106
   1	 110
   1	 113
   1	 114
   1	 115
   1	 117
   2	   5
   2	   6
   2	   7
   2	   8
   2	   9
   2	  11
   2	  18
   2	  19
   2	  21
   2	  22
   2	  34
   2	  35
   2	  43
   2	  48
   2	  52
   2	  54
   2	  57
   2	  58
   2	  66
   2	  67
   2	  68
   2	  71
   2	  72
   2	  73
   2	  74
   2	  80
   2	  85
   2	  91
   2	  92
   2	  94
   2	  97
   2	  98
   2	  99
   2	 102
   2	 103
   2	 111
   2	 112
   2	 113
   2	 116
   3	   5
   3	   6
   3	   8
   3	  11
   3	  14
   3	  15
   3	  21
   3	  23
   3	  32
   3	  33
   3	  37
   3	  38
   3	  41
   3	  44
   3	  47
   3	  52
   3	  53
   3	  56
   3	  64
   3	  68
   3	  70
   3	  75
   3	  76
   3	  79
   3	  80
   3	  83
   3	  86
   3	  89
   3	  90
   3	  96
   3	  97
   3	 100
   3	 116
   3	 118
   3	 119
   4	   6
   4	   7
   4	   8
   4	   9
   4	  10
   4	  13
   4	  19
   4	  23
   4	  24
   4	  33
   4	  38
   4	  40
   4	  42
   4	  46
   4	  47
   4	  48
   4	  56
   4	  59
   4	  66
   4	  68
   4	  69
   4	  71
   4	  76
   4	  83
   4	  84
   4	  85
   4	  88
   4	  95
   4	 101
   4	 102
   4	 105
   4	 107
   4	 108
   4	 109
   4	 110
   4	 115
   5	   8
   5	  11
   5	  14
   5	  20
   5	  26
   5	  29
   5	  30
   5	  31
   5	  32
   5	  34
   5	  36
   5	  43
   5	  47
   5	  48
   5	  53
   5	  55
   5	  58
   5	  60
   5	  66
   5	  68
   5	  76
   5	  78
   5	  79
   5	  82
   5	  84
   5	  85
   5	  86
   5	  88
   5	  92
   5	  98
   5	  99
   5	 104
   5	 107
   5	 111
   5	 112
   5	 113
   5	 115
   5	 117
   5	 118
   6	   8
   6	  10
   6	  14
   6	  15
   6	  17
   6	  19
   6	  22
   6	  26
   6	  27
   6	  28
   6	  29
   6	  30
   6	  31
   6	  32
   6	  33
   6	  36
   6	  39
   6	  45
   6	  48
   6	  49
   6	  53
   6	  54
   6	  61
   6	  65
   6	  66
   6	  72
   6	  81
   6	  84
   6	  91
   6	  92
   6	  97
   6	 101
   6	 106
   6	 107
   6	 108
   6	 114
   7	   9
   7	  11
   7	  15
   7	  16
   7	  17
   7	  19
   7	  21
   7	  23
   7	  24
   7	  26
   7	  28
   7	  29
   7	  31
   7	  33
   7	  34
   7	  37
   7	  38
   7	  40
   7	  51
   7	  55
   7	  58
   7	  59
   7	  60
   7	  63
   7	  69
   7	  73
   7	  74
   7	  76
   7	  79
   7	  80
   7	  81
   7	  89
   7	  91
   7	  93
   7	  94
   7	 102
   7	 103
   7	 109
   7	 110
   7	 118
   8	  16
   8	  25
   8	  33
   8	  38
   8	  39
   8	  40
   8	  46
   8	  47
   8	  48
   8	  55
   8	  57
   8	  65
   8	  66
   8	  69
   8	  71
   8	  75
   8	  76
   8	  78
   8	  82
   8	  87
   8	  88
   8	  89
   8	  90
   8	  93
   8	  94
   8	  96
   8	  99
   8	 109
   8	 111
   8	 112
   8	 117
   8	 119
   9	  13
   9	  26
   9	  31
   9	  33
   9	  36
   9	  38
   9	  39
   9	  44
   9	  45
   9	  52
   9	  57
   9	  59
   9	  61
   9	  63
   9	  68
   9	  71
   9	  72
   9	  74
   9	  78
   9	  81
   9	  82
   9	  86
   9	  92
   9	 100
   9	 104
   9	 110
   9	 114
   9	 115
   9	 119
  10	  12
  10	  14
  10	  17
  10	  22
  10	  23
  10	  30
  10	  31
  10	  38
  10	  44
  10	  45
  10	  58
  10	  60
  10	  61
  10	  63
  10	  64
  10	  66
  10	  69
  10	  70
  10	  71
  10	  74
  10	  75
  10	  77
  10	  78
  10	  80
  10	  81
  10	  86
  10	  89
  10	  92
  10	  95
  10	  96
  10	  98
  10	 102
  10	 109
  10	 111
  10	 115
  10	 116
  10	 118
  11	  13
  11	  14
  11	  15
  11	  17
  11	  18
  11	  22
  11	  26
  11	  29
  11	  31
  11	  35
  11	  38
  11	  40
  11	  42
  11	  43
  11	  46
  11	  48
  11	  54
  11	  66
  11	  67
  11	  70
  11	  71
  11	  75
  11	  77
  11	  78
  11	  81
  11	  82
  11	  87
  11	  89
  11	  90
  11	  92
  11	  94
  11	  96
  11	  98
  11	 101
  11	 104
  11	 105
  11	 106
  11	 108
  11	 110
  11	 114
  11	 115
  12	  13
  12	  22
  12	  25
  12	  26
  12	  28
  12	  30
  12	  33
  12	  38
  12	  42
  12	  45
  12	  47
  12	  50
  12	  51
  12	  64
  12	  67
  12	  68
  12	  71
  12	  73
  12	  74
  12	  75
  12	  76
  12	  77
  12	  82
  12	  84
  12	  88
  12	  92
  12	 100
  12	 101
  12	 103
  12	 111
  13	  15
  13	  18
  13	  21
  13	  23
  13	  24
  13	  26
  13	  27
  13	  39
  13	  40
  13	  43
  13	  46
  13	  48
  13	  51
  13	  53
  13	  57
  13	  73
  13	  75
  13	  83
  13	  84
  13	  88
  13	  91
  13	  95
  13	  97
  13	 102
  13	 104
  13	 110
  13	 111
  13	 118
  14	  18
  14	  19
  14	  20
  14	  23
  14	  24
  14	  30
  14	  31
  14	  32
  14	  34
  14	  35
  14	  36
  14	  37
  14	  40
  14	  43
  14	  46
  14	  49
  14	  52
  14	  53
  14	  59
  14	  60
  14	  61
  14	  63
  14	  67
  14	  70
  14	  71
  14	  73
  14	  76
  14	  77
  14	  86
  14	  87
  14	  89
  14	  93
  14	  97
  14	  98
  14	 101
  14	 103
  14	 108
  14	 109
  14	 111
  14	 112
  14	 113
  14	 115
  14	 117
  15	  18
  15	  19
  15	  20
  15	  21
  15	  25
  15	  32
  15	  36
  15	  42
  15	  44
  15	  47
  15	  48
  15	  54
  15	  56
  15	  57
  15	  61
  15	  63
  15	  64
  15	  65
  15	  70
  15	  72
  15	  74
  15	  80
  15	  81
  15	  83
  15	  95
  15	 102
  15	 103
  15	 107
  15	 108
  15	 110
  15	 111
  15	 115
  15	 116
  16	  17
  16	  21
  16	  25
  16	  28
  16	  30
  16	  35
  16	  36
  16	  37
  16	  38
  16	  41
  16	  45
  16	  56
  16	  58
  16	  60
  16	  69
  16	  71
  16	  73
  16	  80
  16	  81
  16	  87
  16	  93
  16	  98
  16	 107
  16	 112
  16	 113
  16	 114
  16	 119
  17	  20
  17	  21
  17	  28
  17	  30
  17	  31
  17	  39
  17	  41
  17	  45
  17	  46
  17	  48
  17	  50
  17	  52
  17	  54
  17	  56
  17	  60
  17	  66
  17	  80
  17	  82
  17	  84
  17	  85
  17	  86
  17	  87
  17	  96
  17	 104
  17	 108
  18	  19
  18	  22
  18	  23
  18	  30
  18	  31
  18	  32
  18	  36
  18	  37
  18	  38
  18	  41
  18	  43
  18	  48
  18	  50
  18	  51
  18	  52
  18	  63
  18	  64
  18	  68
  18	  70
  18	  72
  18	  76
  18	  77
  18	  83
  18	  86
  18	  87
  18	 100
  18	 102
  18	 109
  18	 110
  18	 117
  18	 119
  19	  27
  19	  28
  19	  29
  19	  31
  19	  32
  19	  38
  19	  43
  19	  44
  19	  52
  19	  53
  19	  55
  19	  56
  19	  59
  19	  62
  19	  63
  19	  67
  19	  72
  19	  73
  19	  75
  19	  76
  19	  77
  19	  79
  19	  80
  19	  81
  19	  83
  19	  88
  19	  91
  19	  98
  19	 105
  19	 107
  19	 115
  19	 119
  20	  21
  20	  23
  20	  24
  20	  33
  20	  34
  20	  40
  20	  43
  20	  48
  20	  52
  20	  53
  20	  54
  20	  62
  20	  63
  20	  67
  20	  68
  20	  75
  20	  79
  20	  80
  20	  81
  20	  82
  20	  88
  20	  90
  20	  91
  20	 104
  20	 107
  20	 109
  20	 111
  20	 118
  21	  22
  21	  23
  21	  27
  21	  28
  21	  29
  21	  33
  21	  34
  21	  38
  21	  40
  21	  41
  21	  43
  21	  44
  21	  47
  21	  51
  21	  52
  21	  53
  21	  55
  21	  56
  21	  62
  21	  67
  21	  71
  21	  74
  21	  75
  21	  80
  21	  81
  21	  86
  21	  88
  21	  94
  21	  98
  21	 100
  21	 102
  21	 114
  21	 118
  22	  23
  22	  27
  22	  32
  22	  39
  22	  41
  22	  43
  22	  45
  22	  49
  22	  51
  22	  59
  22	  61
  22	  64
  22	  65
  22	  66
  22	  68
  22	  75
  22	  76
  22	  77
  22	  78
  22	  84
  22	  85
  22	  88
  22	  89
  22	  91
  22	  99
  22	 103
  22	 104
  22	 105
  22	 106
  22	 107
  22	 113
  22	 115
  22	 116
  22	 117
  22	 118
  23	  24
  23	  30
  23	  33
  23	  35
  23	  36
  23	  37
  23	  38
  23	  49
  23	  50
  23	  57
  23	  60
  23	  61
  23	  62
  23	  67
  23	  70
  23	  76
  23	  77
  23	  79
  23	  84
  23	  89
  23	  90
  23	  91
  23	  94
  23	 101
  23	 109
  24	  25
  24	  29
  24	  31
  24	  38
  24	  39
  24	  45
  24	  48
  24	  49
  24	  51
  24	  53
  24	  61
  24	  62
  24	  63
  24	  68
  24	  69
  24	  76
  24	  77
  24	  78
  24	  83
  24	  84
  24	  92
  24	  95
  24	 100
  24	 102
  24	 103
  24	 105
  24	 110
  24	 115
  24	 118
  25	  28
  25	  32
  25	  36
  25	  47
  25	  49
  25	  50
  25	  51
  25	  54
  25	  61
  25	  64
  25	  65
  25	  69
  25	  79
  25	  80
  25	  87
  25	  90
  25	  92
  25	 101
  25	 103
  25	 106
  25	 110
  25	 113
  25	 117
  26	  27
  26	  29
  26	  42
  26	  46
  26	  50
  26	  53
  26	  57
  26	  69
  26	  72
  26	  79
  26	  81
  26	  87
  26	  95
  26	  99
  26	 101
  26	 105
  26	 108
  26	 109
  26	 111
  26	 114
  26	 115
  26	 117
  27	  28
  27	  29
  27	  32
  27	  34
  27	  36
  27	  45
  27	  46
  27	  47
  27	  48
  27	  49
  27	  51
  27	  52
  27	  56
  27	  60
  27	  61
  27	  63
  27	  65
  27	  70
  27	  71
  27	  73
  27	  79
  27	  81
  27	  84
  27	  93
  27	  94
  27	  95
  27	  99
  27	 108
  27	 112
  27	 114
  28	  30
  28	  32
  28	  33
  28	  34
  28	  35
  28	  36
  28	  37
  28	  38
  28	  39
  28	  41
  28	  58
  28	  63
  28	  64
  28	  65
  28	  67
  28	  72
  28	  75
  28	  78
  28	  80
  28	  81
  28	  84
  28	  85
  28	  86
  28	  90
  28	  93
  28	  95
  28	  99
  28	 104
  28	 105
  28	 106
  28	 109
  28	 118
  29	  37
  29	  40
  29	  42
  29	  44
  29	  45
  29	  46
  29	  50
  29	  51
  29	  56
  29	  57
  29	  61
  29	  69
  29	  72
  29	  73
  29	  75
  29	  76
  29	  78
  29	  80
  29	  81
  29	  86
  29	  89
  29	  93
  29	 102
  29	 105
  29	 117
  30	  34
  30	  47
  30	  48
  30	  55
  30	  70
  30	  72
  30	  73
  30	  76
  30	  79
  30	  80
  30	  82
  30	  83
  30	  88
  30	  92
  30	  95
  30	  98
  30	  99
  30	 101
  30	 105
  30	 109
  30	 116
  30	 118
  31	  32
  31	  35
  31	  36
  31	  37
  31	  45
  31	  50
  31	  57
  31	  58
  31	  59
  31	  63
  31	  66
  31	  68
  31	  75
  31	  76
  31	  78
  31	  82
  31	  84
  31	  87
  31	  88
  31	  89
  31	  92
  31	  98
  31	 101
  31	 102
  31	 104
  31	 106
  31	 107
  31	 108
  31	 111
  31	 119
  32	  35
  32	  36
  32	  51
  32	  54
  32	  57
  32	  58
  32	  65
  32	  66
  32	  71
  32	  78
  32	  79
  32	  80
  32	  81
  32	  84
  32	  87
  32	  89
  32	  91
  32	  92
  32	  93
  32	  95
  32	 100
  32	 104
  32	 110
  32	 114
  32	 115
  32	 116
  33	  35
  33	  36
  33	  38
  33	  39
  33	  41
  33	  43
  33	  47
  33	  50
  33	  51
  33	  54
  33	  57
  33	  59
  33	  63
  33	  64
  33	  65
  33	  66
  33	  70
  33	  73
  33	  76
  33	  78
  33	  91
  33	  96
  33	  98
  33	 102
  33	 103
  33	 104
  33	 105
  33	 106
  33	 107
  33	 111
  33	 117
  34	  45
  34	  47
  34	  51
  34	  53
  34	  57
  34	  58
  34	  59
  34	  61
  34	  64
  34	  66
  34	  72
  34	  73
  34	  75
  34	  79
  34	  81
  34	  82
  34	  96
  34	  98
  34	 104
  34	 106
  34	 108
  34	 109
  34	 111
  34	 112
  34	 113
  34	 114
  34	 117
  34	 119
  35	  37
  35	  38
  35	  50
  35	  54
  35	  60
  35	  73
  35	  75
  35	  78
  35	  80
  35	  88
  35	  91
  35	  93
  35	  94
  35	  97
  35	  99
  35	 104
  35	 112
  35	 114
  36	  37
  36	  41
  36	  42
  36	  49
  36	  51
  36	  59
  36	  60
  36	  65
  36	  79
  36	  82
  36	  84
  36	  88
  36	  91
  36	  92
  36	  95
  36	  96
  36	  97
  36	  98
  36	  99
  36	 101
  36	 103
  37	  38
  37	  39
  37	  40
  37	  45
  37	  46
  37	  49
  37	  50
  37	  58
  37	  63
  37	  65
  37	  69
  37	  70
  37	  78
  37	  85
  37	  86
  37	  87
  37	  88
  37	  90
  37	  92
  37	  94
  37	 101
  37	 105
  37	 107
  37	 110
  37	 113
  37	 118
  38	  39
  38	  41
  38	  42
  38	  44
  38	  45
  38	  53
  38	  57
  38	  58
  38	  59
  38	  69
  38	  83
  38	  85
  38	  87
  38	  88
  38	  89
  38	  93
  38	  94
  38	  99
  38	 105
  38	 109
  38	 110
  38	 113
  38	 116
  38	 118
  39	  41
  39	  44
  39	  49
  39	  50
  39	  55
  39	  58
  39	  64
  39	  67
  39	  69
  39	  70
  39	  71
  39	  73
  39	  74
  39	  78
  39	  79
  39	  82
  39	  84
  39	  85
  39	  89
  39	  91
  39	  92
  39	  94
  39	  99
  39	 100
  39	 106
  39	 107
  39	 110
  39	 114
  40	  44
  40	  48
  40	  50
  40	  56
  40	  60
  40	  61
  40	  62
  40	  70
  40	  72
  40	  76
  40	  77
  40	  79
  40	  81
  40	  82
  40	  87
  40	  88
  40	  89
  40	  91
  40	  92
  40	  96
  40	 104
  40	 105
  40	 106
  40	 112
  40	 113
  40	 115
  41	  50
  41	  56
  41	  60
  41	  61
  41	  64
  41	  67
  41	  71
  41	  73
  41	  77
  41	  79
  41	  80
  41	  81
  41	  84
  41	  85
  41	  87
  41	  92
  41	  93
  41	  94
  41	 100
  41	 106
  41	 115
  42	  44
  42	  45
  42	  51
  42	  52
  42	  56
  42	  58
  42	  62
  42	  64
  42	  66
  42	  68
  42	  71
  42	  73
  42	  84
  42	  88
  42	  90
  42	  91
  42	  95
  42	  97
  42	 108
  42	 112
  42	 114
  42	 116
  42	 117
  43	  44
  43	  49
  43	  54
  43	  57
  43	  58
  43	  60
  43	  61
  43	  65
  43	  69
  43	  73
  43	  75
  43	  76
  43	  79
  43	  86
  43	  92
  43	  94
  43	  96
  43	  97
  43	 100
  43	 108
  43	 115
  43	 116
  43	 119
  44	  46
  44	  50
  44	  52
  44	  56
  44	  60
  44	  62
  44	  64
  44	  65
  44	  66
  44	  68
  44	  72
  44	  74
  44	  77
  44	  80
  44	  81
  44	  86
  44	  90
  44	  96
  44	 100
  44	 101
  44	 102
  44	 103
  44	 107
  44	 108
  44	 109
  44	 110
  44	 111
  44	 118
  45	  46
  45	  50
  45	  51
  45	  57
  45	  61
  45	  64
  45	  65
  45	  66
  45	  67
  45	  72
  45	  73
  45	  74
  45	  75
  45	  77
  45	  78
  45	  79
  45	  80
  45	  94
  45	  97
  45	 105
  45	 107
  45	 108
  45	 110
  45	 111
  45	 115
  45	 118
  46	  52
  46	  54
  46	  55
  46	  56
  46	  58
  46	  60
  46	  61
  46	  65
  46	  66
  46	  70
  46	  71
  46	  75
  46	  76
  46	  77
  46	  82
  46	  83
  46	  90
  46	  91
  46	  93
  46	 100
  46	 103
  47	  48
  47	  50
  47	  51
  47	  54
  47	  57
  47	  60
  47	  61
  47	  65
  47	  66
  47	  71
  47	  75
  47	  76
  47	  78
  47	  79
  47	  85
  47	  89
  47	  92
  47	  94
  47	  95
  47	  97
  47	  98
  47	 112
  47	 119
  48	  49
  48	  53
  48	  54
  48	  55
  48	  60
  48	  66
  48	  67
  48	  68
  48	  69
  48	  70
  48	  75
  48	  78
  48	  79
  48	  87
  48	  92
  48	  95
  48	  96
  48	 105
  48	 107
  48	 109
  48	 110
  48	 112
  48	 114
  48	 116
  48	 117
  49	  50
  49	  53
  49	  54
  49	  55
  49	  62
  49	  63
  49	  64
  49	  66
  49	  78
  49	  79
  49	  80
  49	  86
  49	  90
  49	  94
  49	  96
  49	  97
  49	  98
  49	 102
  49	 103
  49	 108
  49	 109
  49	 112
  50	  52
  50	  54
  50	  56
  50	  65
  50	  70
  50	  71
  50	  74
  50	  77
  50	  79
  50	  81
  50	  82
  50	  84
  50	  89
  50	  92
  50	  93
  50	  95
  50	  99
  50	 101
  50	 102
  50	 106
  50	 107
  50	 112
  50	 117
  51	  54
  51	  57
  51	  59
  51	  66
  51	  76
  51	  79
  51	  80
  51	  86
  51	  87
  51	  88
  51	  89
  51	  91
  51	  93
  51	  95
  51	  99
  51	 101
  51	 105
  51	 106
  51	 110
  51	 113
  51	 115
  51	 118
  52	  53
  52	  54
  52	  57
  52	  58
  52	  61
  52	  64
  52	  65
  52	  66
  52	  71
  52	  81
  52	  83
  52	  84
  52	  85
  52	  88
  52	  99
  52	 104
  52	 105
  52	 113
  52	 115
  52	 117
  53	  56
  53	  61
  53	  62
  53	  70
  53	  76
  53	  77
  53	  83
  53	  88
  53	  90
  53	 102
  53	 106
  53	 107
  53	 108
  53	 114
  53	 116
  53	 118
  53	 119
  54	  55
  54	  58
  54	  59
  54	  61
  54	  67
  54	  68
  54	  70
  54	  74
  54	  76
  54	  85
  54	  88
  54	  89
  54	  93
  54	  94
  54	  96
  54	  98
  54	 101
  54	 102
  54	 109
  54	 117
  55	  57
  55	  58
  55	  59
  55	  65
  55	  66
  55	  71
  55	  73
  55	  74
  55	  77
  55	  85
  55	  92
  55	  95
  55	 103
  55	 104
  55	 109
  55	 113
  55	 115
  55	 118
  56	  59
  56	  62
  56	  65
  56	  66
  56	  74
  56	  75
  56	  76
  56	  78
  56	  84
  56	  88
  56	  92
  56	 102
  56	 103
  56	 104
  56	 109
  56	 110
  56	 112
  56	 118
  56	 119
  57	  59
  57	  61
  57	  64
  57	  66
  57	  68
  57	  70
  57	  71
  57	  74
  57	  76
  57	  84
  57	  87
  57	  94
  57	  99
  57	 100
  57	 101
  57	 104
  57	 106
  57	 107
  57	 112
  57	 115
  57	 117
  58	  59
  58	  63
  58	  78
  58	  80
  58	  81
  58	  82
  58	  83
  58	  86
  58	  87
  58	  88
  58	  89
  58	  92
  58	 102
  58	 108
  58	 109
  58	 110
  58	 112
  58	 113
  58	 118
  59	  68
  59	  72
  59	  76
  59	  78
  59	  79
  59	  88
  59	  89
  59	  90
  59	  91
  59	  92
  59	  93
  59	  97
  59	 102
  59	 103
  59	 106
  59	 107
  59	 108
  59	 109
  59	 110
  59	 115
  60	  62
  60	  65
  60	  71
  60	  78
  60	  80
  60	  84
  60	  85
  60	  89
  60	  90
  60	  91
  60	  94
  60	  96
  60	 102
  60	 106
  60	 108
  60	 109
  60	 116
  60	 119
  61	  63
  61	  64
  61	  65
  61	  71
  61	  81
  61	  83
  61	  84
  61	  85
  61	  86
  61	  88
  61	  92
  61	  95
  61	  96
  61	  97
  61	 100
  61	 102
  61	 107
  61	 112
  61	 116
  62	  64
  62	  68
  62	  73
  62	  74
  62	  77
  62	  83
  62	  91
  62	  92
  62	  98
  62	 104
  62	 105
  62	 106
  62	 108
  62	 110
  62	 114
  62	 115
  62	 116
  62	 117
  62	 118
  63	  64
  63	  66
  63	  70
  63	  73
  63	  75
  63	  76
  63	  77
  63	  79
  63	  87
  63	  92
  63	  96
  63	  98
  63	 100
  63	 106
  64	  73
  64	  75
  64	  76
  64	  81
  64	  87
  64	  94
  64	  95
  64	  97
  64	 100
  64	 104
  64	 107
  64	 108
  64	 110
  65	  66
  65	  67
  65	  70
  65	  74
  65	  78
  65	  83
  65	  87
  65	  88
  65	  89
  65	  91
  65	  95
  65	  99
  65	 100
  65	 101
  65	 106
  65	 110
  65	 114
  65	 116
  65	 118
  66	  68
  66	  69
  66	  72
  66	  73
  66	  74
  66	  76
  66	  82
  66	  83
  66	  84
  66	  85
  66	  89
  66	  95
  66	  99
  66	 101
  66	 106
  66	 107
  66	 110
  66	 118
  66	 119
  67	  74
  67	  80
  67	  89
  67	  95
  67	 101
  67	 103
  67	 107
  67	 110
  67	 113
  67	 114
  68	  71
  68	  72
  68	  76
  68	  80
  68	  82
  68	  86
  68	  87
  68	  91
  68	 101
  68	 107
  68	 108
  68	 116
  68	 118
  68	 119
  69	  70
  69	  76
  69	  81
  69	  85
  69	  90
  69	  97
  69	 101
  69	 109
  69	 110
  69	 117
  70	  73
  70	  74
  70	  76
  70	  79
  70	  82
  70	  86
  70	  87
  70	  93
  70	  95
  70	 102
  70	 106
  70	 109
  70	 112
  70	 115
  70	 116
  70	 117
  71	  72
  71	  73
  71	  82
  71	  86
  71	  90
  71	  91
  71	  96
  71	  97
  71	 100
  71	 110
  71	 112
  71	 116
  71	 118
  72	  79
  72	  80
  72	  84
  72	  85
  72	  89
  72	  94
  72	  95
  72	  96
  72	  98
  72	 101
  72	 103
  72	 108
  72	 111
  72	 116
  72	 117
  73	  77
  73	  78
  73	  80
  73	  84
  73	  89
  73	  91
  73	  94
  73	  96
  73	  97
  73	 100
  73	 101
  73	 102
  73	 103
  73	 107
  73	 109
  73	 110
  73	 111
  73	 112
  73	 115
  74	  77
  74	  79
  74	  80
  74	  83
  74	  85
  74	  86
  74	  87
  74	  91
  74	 104
  74	 110
  74	 115
  75	  76
  75	  77
  75	  81
  75	  85
  75	  86
  75	  94
  75	  99
  75	 100
  75	 109
  76	  77
  76	  83
  76	  86
  76	  89
  76	  95
  76	 101
  76	 103
  76	 105
  76	 108
  76	 110
  76	 117
  77	  78
  77	  80
  77	  81
  77	  86
  77	  93
  77	 100
  77	 102
  77	 103
  77	 105
  77	 106
  77	 108
  77	 109
  77	 110
  77	 112
  77	 113
  77	 115
  77	 116
  77	 118
  77	 119
  78	  80
  78	  81
  78	  82
  78	  85
  78	  90
  78	 108
  78	 110
  78	 112
  78	 116
  78	 118
  79	  80
  79	  83
  79	  85
  79	  86
  79	  89
  79	  93
  79	 104
  79	 116
  80	  81
  80	  84
  80	  87
  80	  91
  80	 102
  80	 110
  80	 116
  80	 118
  81	  83
  81	  86
  81	  87
  81	  92
  81	  93
  81	  94
  81	  99
  81	 100
  81	 108
  81	 110
  81	 114
  81	 117
  82	  84
  82	  88
  82	  94
  82	  96
  82	 103
  82	 108
  82	 110
  83	  84
  83	  87
  83	  90
  83	  92
  83	  96
  83	 101
  83	 102
  83	 103
  83	 107
  83	 110
  83	 111
  83	 114
  83	 117
  83	 119
  84	  89
  84	  91
  84	  92
  84	  96
  84	  98
  84	 105
  84	 109
  84	 111
  84	 113
  84	 115
  84	 116
  84	 117
  85	  90
  85	  94
  85	  98
  85	 100
  85	 101
  85	 106
  85	 108
  85	 111
  85	 113
  86	  87
  86	  90
  86	  97
  86	  98
  86	 101
  86	 102
  86	 105
  86	 106
  86	 113
  86	 115
  87	  91
  87	  93
  87	  94
  87	  95
  87	  99
  88	  91
  88	  92
  88	  96
  88	  97
  88	  99
  88	 102
  88	 105
  88	 106
  88	 108
  88	 117
  89	  90
  89	  91
  89	 100
  89	 105
  89	 107
  89	 110
  89	 113
  89	 114
  89	 115
  90	  99
  90	 104
  90	 107
  90	 111
  90	 113
  91	  92
  91	  96
  91	  99
  91	 106
  91	 114
  91	 117
  92	  97
  92	  98
  92	 101
  92	 105
  92	 110
  92	 114
  92	 118
  93	  96
  93	 100
  93	 104
  93	 107
  93	 113
  93	 117
  94	 103
  94	 106
  94	 108
  94	 109
  94	 117
  95	  97
  95	 100
  95	 104
  95	 105
  95	 106
  95	 107
  95	 108
  95	 111
  95	 113
  95	 116
  95	 117
  95	 118
  95	 119
  96	  97
  96	 103
  96	 105
  96	 111
  96	 113
  96	 114
  96	 119
  97	  99
  97	 100
  97	 101
  97	 102
  97	 104
  97	 106
  97	 112
  98	 105
  98	 117
  98	 119
  99	 101
  99	 102
  99	 104
  99	 105
  99	 106
  99	 107
  99	 109
  99	 113
  99	 115
  99	 117
  99	 119
 100	 101
 100	 112
 100	 113
 100	 117
 101	 108
 101	 109
 101	 110
 101	 112
 101	 114
 101	 119
 102	 107
 102	 108
 102	 113
 102	 116
 102	 117
 103	 107
 103	 108
 103	 109
 103	 110
 103	 119
 104	 106
 104	 110
 104	 118
 106	 107
 106	 108
 106	 112
 106	 113
 106	 114
 106	 119
 107	 110
 107	 112
 107	 113
 108	 113
 108	 114
 108	 117
 108	 119
 109	 112
 110	 113
 110	 114
 110	 116
 110	 118
 111	 114
 111	 116
 111	 118
 111	 119
 112	 114
 113	 116
 114	 115
 114	 118
 115	 116
 115	 117
 115	 118
 117	 119
;
